min: c;

c = 2.87490514726069 * u1_t7_h4 + 3.14867927140081 * u1_t7_h5 + 4.01199603851974 * u1_t5_h6 + 4.01199603851974 * u1_t7_h6 + 4.2841049057867 * u1_t5_h7 + 4.2841049057867 * u1_t7_h7 + 4.2841049057867 * u1_t9_h7 + 5.25603420354519 * u1_t5_h8 + 5.25603420354519 * u1_t7_h8 + 5.25603420354519 * u1_t9_h8 + 5.25603420354519 * u1_t10_h8 + 5.15850277359381 * u1_t5_h9 + 5.15850277359381 * u1_t7_h9 + 5.15850277359381 * u1_t9_h9 + 5.15850277359381 * u1_t10_h9 + 5.08633459122471 * u1_t5_h10 + 5.08633459122471 * u1_t7_h10 + 5.08633459122471 * u1_t9_h10 + 5.08633459122471 * u1_t10_h10 + 4.2491720723628 * u1_t5_h11 + 4.2491720723628 * u1_t9_h11 + 4.2491720723628 * u1_t10_h11 + 5.75163218230343 * u1_t4_h12 + 5.75163218230343 * u1_t5_h12 + 5.75163218230343 * u1_t8_h12 + 5.75163218230343 * u1_t9_h12 + 5.75163218230343 * u1_t10_h12 + 4.59943409338097 * u1_t4_h13 + 4.59943409338097 * u1_t8_h13 + 4.59943409338097 * u1_t9_h13 + 4.59943409338097 * u1_t10_h13 + 5.48865583131397 * u1_t4_h14 + 5.48865583131397 * u1_t8_h14 + 5.48865583131397 * u1_t9_h14 + 5.48865583131397 * u1_t10_h14 + 6.36973084920262 * u1_t4_h15 + 6.36973084920262 * u1_t8_h15 + 5.57317327972904 * u1_t4_h16 + 5.57317327972904 * u1_t8_h16 + 6.6033270618101 * u1_t4_h17 + 6.6033270618101 * u1_t8_h17 + 6.50219764557237 * u1_t2_h18 + 6.50219764557237 * u1_t4_h18 + 6.50219764557237 * u1_t6_h18 + 6.50219764557237 * u1_t8_h18 + 5.99224160429987 * u1_t2_h19 + 5.99224160429987 * u1_t3_h19 + 5.99224160429987 * u1_t4_h19 + 5.99224160429987 * u1_t6_h19 + 5.41230433115191 * u1_t1_h20 + 5.41230433115191 * u1_t2_h20 + 5.41230433115191 * u1_t3_h20 + 5.41230433115191 * u1_t4_h20 + 5.41230433115191 * u1_t6_h20 + 4.78940650285268 * u1_t1_h21 + 4.78940650285268 * u1_t2_h21 + 4.78940650285268 * u1_t3_h21 + 6.02077312268415 * u1_t1_h22 + 6.02077312268415 * u1_t2_h22 + 5.52628429035552 * u1_t1_h23 + 5.52628429035552 * u1_t2_h23;
0 <= u1_t1_h20 <= 1;
0 <= u1_t1_h21 <= 1;
0 <= u1_t1_h22 <= 1;
0 <= u1_t1_h23 <= 1;
u1_t1_h20 + u1_t1_h21 + u1_t1_h22 + u1_t1_h23 = 1;
0 <= u1_t2_h18 <= 1;
0 <= u1_t2_h19 <= 1;
0 <= u1_t2_h20 <= 1;
0 <= u1_t2_h21 <= 1;
0 <= u1_t2_h22 <= 1;
0 <= u1_t2_h23 <= 1;
u1_t2_h18 + u1_t2_h19 + u1_t2_h20 + u1_t2_h21 + u1_t2_h22 + u1_t2_h23 = 2;
0 <= u1_t3_h19 <= 1;
0 <= u1_t3_h20 <= 1;
0 <= u1_t3_h21 <= 1;
u1_t3_h19 + u1_t3_h20 + u1_t3_h21 = 1;
0 <= u1_t4_h12 <= 1;
0 <= u1_t4_h13 <= 1;
0 <= u1_t4_h14 <= 1;
0 <= u1_t4_h15 <= 1;
0 <= u1_t4_h16 <= 1;
0 <= u1_t4_h17 <= 1;
0 <= u1_t4_h18 <= 1;
0 <= u1_t4_h19 <= 1;
0 <= u1_t4_h20 <= 1;
u1_t4_h12 + u1_t4_h13 + u1_t4_h14 + u1_t4_h15 + u1_t4_h16 + u1_t4_h17 + u1_t4_h18 + u1_t4_h19 + u1_t4_h20 = 3;
0 <= u1_t5_h6 <= 1;
0 <= u1_t5_h7 <= 1;
0 <= u1_t5_h8 <= 1;
0 <= u1_t5_h9 <= 1;
0 <= u1_t5_h10 <= 1;
0 <= u1_t5_h11 <= 1;
0 <= u1_t5_h12 <= 1;
u1_t5_h6 + u1_t5_h7 + u1_t5_h8 + u1_t5_h9 + u1_t5_h10 + u1_t5_h11 + u1_t5_h12 = 3;
0 <= u1_t6_h18 <= 1;
0 <= u1_t6_h19 <= 1;
0 <= u1_t6_h20 <= 1;
u1_t6_h18 + u1_t6_h19 + u1_t6_h20 = 2;
0 <= u1_t7_h4 <= 1;
0 <= u1_t7_h5 <= 1;
0 <= u1_t7_h6 <= 1;
0 <= u1_t7_h7 <= 1;
0 <= u1_t7_h8 <= 1;
0 <= u1_t7_h9 <= 1;
0 <= u1_t7_h10 <= 1;
u1_t7_h4 + u1_t7_h5 + u1_t7_h6 + u1_t7_h7 + u1_t7_h8 + u1_t7_h9 + u1_t7_h10 = 2;
0 <= u1_t8_h12 <= 1;
0 <= u1_t8_h13 <= 1;
0 <= u1_t8_h14 <= 1;
0 <= u1_t8_h15 <= 1;
0 <= u1_t8_h16 <= 1;
0 <= u1_t8_h17 <= 1;
0 <= u1_t8_h18 <= 1;
u1_t8_h12 + u1_t8_h13 + u1_t8_h14 + u1_t8_h15 + u1_t8_h16 + u1_t8_h17 + u1_t8_h18 = 2;
0 <= u1_t9_h7 <= 1;
0 <= u1_t9_h8 <= 1;
0 <= u1_t9_h9 <= 1;
0 <= u1_t9_h10 <= 1;
0 <= u1_t9_h11 <= 1;
0 <= u1_t9_h12 <= 1;
0 <= u1_t9_h13 <= 1;
0 <= u1_t9_h14 <= 1;
u1_t9_h7 + u1_t9_h8 + u1_t9_h9 + u1_t9_h10 + u1_t9_h11 + u1_t9_h12 + u1_t9_h13 + u1_t9_h14 = 3;
0 <= u1_t10_h8 <= 1;
0 <= u1_t10_h9 <= 1;
0 <= u1_t10_h10 <= 1;
0 <= u1_t10_h11 <= 1;
0 <= u1_t10_h12 <= 1;
0 <= u1_t10_h13 <= 1;
0 <= u1_t10_h14 <= 1;
u1_t10_h8 + u1_t10_h9 + u1_t10_h10 + u1_t10_h11 + u1_t10_h12 + u1_t10_h13 + u1_t10_h14 = 3;
